language ESSENCE' 1.0
$ Minion SolverNodes: 3
$ Minion SolverTotalTime: 0.045818
$ Minion SolverTimeOut: 0
$ Savile Row TotalTime: 0.545
letting M be [[24, 17, 14, 11, 4], 
[11, 17, 14, 4, -1], 
[4, 17, 14, -1, -1], 
[17, 14, -1, -1, -1], 
[14, -1, -1, -1, -1]]
